Route #1: 1 5 69 75 49 30 16 58 14 53 9 20 15 54 12 39 12 67 12 66 12 15 36 9 47 35 1 
Route #2: 1 27 18 13 73 11 73 59 73 40 10 33 51 19 51 26 51 33 4 45 33 41 18 52 7 69 1 
Route #3: 1 76 69 3 75 48 37 70 37 38 71 21 71 61 72 37 6 30 46 28 14 55 14 9 8 9 68 1 
Route #4: 1 69 31 75 22 75 29 63 23 63 74 34 64 44 43 42 57 24 50 25 50 17 64 2 63 69 1 
Cost 756.0
